column=9;
row=9;
max=6;
left=[0, 6, 0, 4, 5, 0, 3, 1, 3];
right=[0, 0, 0, 1, 0, 2, 5, 0, 0];
top=[3, 0, 0, 1, 0, 2, 0, 6, 3];
bottom=[1, 0, 1, 0, 0, 5, 4, 0, 0];
Board=[|3,0,0,1,4,2,0,6,0|0,0,4,3,0,0,5,1,0|2,5,0,6,0,4,1,0,0|0,6,0,5,3,0,0,2,0|0,0,0,2,0,0,0,0,4|1,4,0,0,5,0,3,0,2|0,0,0,0,6,1,0,4,5|0,0,0,0,0,0,0,3,0|0,3,1,0,2,0,4,0,0|]